NAME: cours_note
TYPE: TSP
COMMENT: Exemple de cours
DIMENSION: 9
EDGE_WEIGHT_TYPE: EXPLICIT
EDGE_WEIGHT_FORMAT: FULL_MATRIX 
EDGE_WEIGHT_SECTION  
1000000000 4 1000000000 1000000000 1000000000 1000000000 1000000000 8 1000000000
4 1000000000 8 1000000000 1000000000 1000000000 1000000000 11 1000000000
1000000000 8 1000000000 7 1000000000 4 1000000000 1000000000 2
1000000000 1000000000 7 1000000000 9 14 1000000000 1000000000 1000000000
1000000000 1000000000 1000000000 9 1000000000 10 1000000000 1000000000 1000000000
1000000000 1000000000 4 14 10 1000000000 2 1000000000 1000000000 
1000000000 1000000000 1000000000 1000000000 1000000000 2 1000000000 1 6
8 11 1000000000 1000000000 1000000000 1000000000 1 1000000000 7
1000000000 1000000000 2 1000000000 1000000000 1000000000 6 7 1000000000 
EOF